solution status: optimal solution found
objective value:                                   26
x29                                                 1 	(obj:1)
x31                                                 1 	(obj:1)
x32                                                 1 	(obj:1)
x34                                                 1 	(obj:1)
x38                                                 1 	(obj:1)
x41                                                 1 	(obj:1)
x43                                                 1 	(obj:1)
x44                                                 1 	(obj:1)
x45                                                 1 	(obj:1)
x46                                                 1 	(obj:1)
x49                                                 1 	(obj:1)
x51                                                 1 	(obj:1)
x56                                                 1 	(obj:1)
x57                                                 1 	(obj:1)
x58                                                 1 	(obj:1)
x63                                                 1 	(obj:1)
x67                                                 1 	(obj:1)
x72                                                 1 	(obj:1)
x74                                                 1 	(obj:1)
x79                                                 1 	(obj:1)
x87                                                 1 	(obj:1)
x88                                                 1 	(obj:1)
x91                                                 1 	(obj:1)
x93                                                 1 	(obj:1)
x94                                                 1 	(obj:1)
x96                                                 1 	(obj:1)
one.thingy.devices[0].thingy.v7_y                   21 	(obj:0)
one.thingy.devices[0].thingy.v7_z                   21 	(obj:0)
one.thingy.devices[3].thingy.v8_y                   21 	(obj:0)
one.thingy.devices[3].thingy.v8_z                   17 	(obj:0)
one.thingy.devices[2].thingy.v9_y                   21 	(obj:0)
one.thingy.devices[2].thingy.v9_z                   19 	(obj:0)
one.thingy.devices[1].thingy.v7_y                   20 	(obj:0)
one.thingy.devices[1].thingy.v7_z                   21 	(obj:0)
one.thingy.devices[3].thingy.v7_y                   22 	(obj:0)
one.thingy.devices[3].thingy.v7_z                   17 	(obj:0)
one.thingy.devices[0].thingy.v9_y                   21 	(obj:0)
one.thingy.devices[0].thingy.v9_z                   23 	(obj:0)
one.ctrl_s[2].flush_y                              18 	(obj:0)
one.ctrl_s[2].flush_z                              14 	(obj:0)
one.thingy.devices[3].thingy.v9_y                   22 	(obj:0)
one.thingy.devices[3].thingy.v9_z                   18 	(obj:0)
one.thingy.devices[0].thingy.v8_y                   23 	(obj:0)
one.thingy.devices[0].thingy.v8_z                   21 	(obj:0)
one.thingy.devices[2].thingy.v7_y                   20 	(obj:0)
one.thingy.devices[2].thingy.v7_z                   20 	(obj:0)
one.ctrl_s[2].hole_y                               17 	(obj:0)
one.ctrl_s[2].hole_z                               19 	(obj:0)
one.thingy.devices[1].thingy.v9_y                   22 	(obj:0)
one.thingy.devices[1].thingy.v9_z                   22 	(obj:0)
one.thingy.devices[2].thingy.v8_y                   21 	(obj:0)
one.thingy.devices[2].thingy.v8_z                   18 	(obj:0)
one.thingy.devices[1].thingy.v8_y                   22 	(obj:0)
one.thingy.devices[1].thingy.v8_z                   20 	(obj:0)
